p cnf 6 48
5 -2 -3 0
5 -6 -2 -1 0
3 -5 0
4 2 3 0
-6 5 -3 0
6 -2 1 0
-2 4 -1 -4 0
-2 -5 3 5 0
1 2 0
-5 -3 0
3 5 6 0
5 -4 5 6 0
5 -1 4 0
2 -1 0
6 6 0
6 0
-2 -1 0
4 6 -3 3 -4 0
-3 2 -5 1 6 0
-6 -1 3 0
-6 -4 5 0
-5 -4 -6 3 0
-4 -4 6 2 4 0
-1 -6 0
3 2 0
1 6 0
-5 1 0
4 -5 -2 1 0
-1 -5 4 0
-5 -1 -5 -3 6 0
6 0
4 -3 1 -2 -3 0
-5 3 -6 2 0
-5 6 5 -4 0
-4 -2 1 -1 0
-2 6 4 -6 -6 0
4 1 0
-3 -4 -4 4 0
1 0
-1 5 1 0
1 0
2 6 -6 0
-5 -4 0
4 3 -1 -1 6 0
5 -3 4 0
5 6 0
-4 -2 0
2 -5 -1 -4 0